\ Model Routes
\ LP format - for model browsing. Use MPS format to capture full model detail.
Maximize
  - 191.7153353028244 R{0,0} + 623.2046552982704 R{0,1}
   + 623.2046552982704 R{0,2} - 249.2301939667805 R{0,3}
   - 31.82321499385571 R{0,4} + 638.834524368017 R{0,5}
   + 434.1633846344188 R{0,6} + 27.03076311115086 R{0,7}
   + 663.9983169450314 R{0,8} + 719.3256306951635 R{0,9}
   + 888.6633736610559 R{0,10} + 628.3085410177762 R{0,11}
   + 630.250025301407 R{0,12} + 719.3256306951635 R{0,13}
   + 267.0358082253268 R{0,14} + 1003.853398373875 R{0,15}
   + 670.4731458923899 R{0,16} + 426.0462613747952 R{0,17}
   + 801.0970290354471 R{0,18} + 2482.247245792777 R{0,19}
   + 2282.42847135748 R{0,20} + 426.0462613747952 R{0,21}
   - 256.140831891889 R{1,0} + 41.44651618699046 R{1,1}
   + 468.947430945026 R{1,2} + 276.7757802541865 R{1,3}
   + 90.95799008240454 R{1,4} + 1254.158977341646 R{1,5}
   + 113.0626312224127 R{1,6} + 865.5259845156161 R{1,7}
   + 466.1512155265586 R{1,8} + 1042.036148421981 R{1,9}
   + 781.4065636605737 R{1,10} + 815.8469196132528 R{1,11}
   + 2395.257010814717 R{1,12} + 1125.89499603916 R{1,13}
   + 1673.529076807584 R{1,14} + 1334.157874985925 R{1,15}
   + 1486.087907698572 R{1,16} + 327.9519641387848 R{1,17}
   + 797.4335420800721 R{1,18} + 247.2280480419294 R{1,19}
   + 1789.980838497945 R{1,20} + 1518.396179354912 R{1,21}
   + 1766.607011444209 R{1,22} + 601.2422027943874 R{1,23}
   + 1198.881248318718 R{2,0} + 1198.881248318718 R{2,1}
   - 278.4443928850388 R{2,2} + 355.5628375470975 R{2,3}
   + 1452.269829909344 R{2,4} + 1452.269829909344 R{2,5}
   + 1123.54417632561 R{2,6} + 1033.945431397028 R{2,7}
   + 775.6918497929551 R{2,8} + 725.2351538442874 R{2,9}
   + 627.2437721606231 R{2,10} + 1293.340359871128 R{2,11}
   + 1389.127411561687 R{2,12} + 1017.471807383297 R{2,13}
   + 472.5850133025036 R{2,14} + 954.329389035641 R{2,15}
   + 774.166852893441 R{2,16} + 813.9972855083413 R{2,17}
   + 2640.053793603249 R{2,18} + 596.0641527684618 R{2,19}
   + 1298.787999940605 R{2,20} + 1809.559137189971 R{2,21}
   + 392.225728173772 R{2,22} + 460.3175533095396 R{2,23}
   + 985.4249005788674 R{2,24} - 260.2482995389823 R{3,0}
   + 346.6370480492103 R{3,1} + 875.8162233713115 R{3,2}
   + 1308.1755961407 R{3,3} + 1350.018768640748 R{3,4}
   + 940.2346328741708 R{3,5} + 1547.859444886053 R{3,6}
   + 1140.410813513929 R{3,7} + 1206.948360344684 R{3,8}
   + 334.5188294352722 R{3,9} + 1409.533937645882 R{3,10}
   + 1373.95644550161 R{3,11} + 1135.668698130163 R{3,12}
   + 790.4159686429699 R{3,13} + 1441.159606980203 R{3,14}
   + 449.0390114331846 R{3,15} + 617.5973903728595 R{3,16}
   + 745.3400246400747 R{3,17} + 763.8659098500843 R{3,18}
   + 1062.988070279527 R{3,19} + 1134.705121233663 R{3,20}
   + 530.9231038222915 R{3,21} + 1119.597085310626 R{3,22}
   + 1358.226543573302 R{3,23} + 988.7533177701598 R{3,24}
   + 809.1581964156455 R{3,25} + 988.7533177701598 R{3,26}
   - 242.5208875955131 R{4,0} + 1055.572474837385 R{4,1}
   + 1576.196574514046 R{4,2} + 1234.639477099264 R{4,3}
   + 566.9065468612164 R{4,4} + 636.1946624570069 R{4,5}
   + 1929.418535802297 R{4,6} + 1478.364171770188 R{4,7}
   + 1425.901966884533 R{4,8} + 1407.883354517502 R{4,9}
   + 1839.317250414881 R{4,10} + 1582.905285134214 R{4,11}
   + 1252.752422928315 R{4,12} + 1773.565163131426 R{4,13}
   + 1308.265855130805 R{4,14} + 1845.446240702139 R{4,15}
   + 566.1011146705227 R{4,16} + 2156.530205162788 R{4,17}
   + 525.3934735920159 R{4,18} + 1274.36549094027 R{4,19}
   + 874.7782079583665 R{4,20} + 1027.387385251685 R{4,21}
   + 554.0508843483825 R{4,22} + 772.5499646325056 R{4,23}
   + 365.6815636826112 R{4,24} + 1425.896049910113 R{4,25}
   + 1270.641085429389 R{4,26} + 1110.455376285146 R{4,27}
   + 1376.905677590863 R{4,28} + 1226.72976259848 R{4,29}
   - 231.9775664337766 R{5,0} + 26.05114134086458 R{5,1}
   + 610.5153627301429 R{5,2} + 559.6994553836007 R{5,3}
   + 878.9588535244063 R{5,4} + 1288.155232167378 R{5,5}
   + 606.2497157447822 R{5,6} + 952.1872881775882 R{5,7}
   + 1457.040268463166 R{5,8} + 1078.953817168265 R{5,9}
   + 1544.800605292526 R{5,10} + 997.5805993536369 R{5,11}
   - 97.29942462949043 R{5,12} + 2342.919688781102 R{5,13}
   + 462.2177794712278 R{5,14} + 2263.65877942006 R{5,15}
   + 369.099578521997 R{5,16} + 899.2270902557668 R{5,17}
   + 899.2270902557668 R{5,18} + 1150.026819134061 R{5,19}
   + 79.10509855431206 R{5,20} + 2359.65049272158 R{5,21}
   + 612.672087963806 R{5,22} + 889.9883915509679 R{5,23}
   + 369.099578521997 R{5,24} - 231.1436095783099 R{6,0}
   + 1167.662596672249 R{6,1} + 1908.929790555056 R{6,2}
   + 2357.708821428034 R{6,3} + 1223.394024802483 R{6,4}
   + 1317.903564992424 R{6,5} + 1223.394024802483 R{6,6}
   + 786.1341239514918 R{6,7} + 1823.708732508127 R{6,8}
   + 1021.928346794481 R{6,9} + 792.6143531901661 R{6,10}
   + 810.860915310661 R{6,11} + 2027.804910670105 R{6,12}
   + 1317.903564992424 R{6,13} + 2300.200332930321 R{6,14}
   + 1388.533140823077 R{6,15} + 1668.591848987478 R{6,16}
   + 765.7667175254134 R{6,17} + 1563.697123204066 R{6,18}
   + 622.0169989684379 R{6,19} + 1282.748424189698 R{6,20}
   + 1317.903564992424 R{6,21} + 1536.414174857291 R{6,22}
   + 2573.071226309907 R{6,23} + 1152.35604203976 R{6,24}
   + 2382.418906975896 R{6,25} + 894.6408161913462 R{6,26}
   + 399.4504391283058 R{6,27} + 269.4974389140934 R{6,28}
   + 1863.910091123569 R{6,29} + 229.5169012613136 R{6,30}
   + 797.2604235197761 R{6,31} + 955.8490227897591 R{6,32}
   + 880.9922506142238 R{6,33} + 1212.663435027082 R{6,34}
   + 1491.705701664191 R{6,35}
Subject To
 R00: R{0,0} <= 1
 R01: R{0,1} <= 1
 R02: R{0,2} <= 1
 R03: R{0,3} <= 1
 R04: R{0,4} <= 1
 R05: R{0,5} <= 1
 R06: R{0,6} <= 1
 R07: R{0,7} <= 1
 R08: R{0,8} <= 1
 R09: R{0,9} <= 1
 R010: R{0,10} <= 1
 R011: R{0,11} <= 1
 R012: R{0,12} <= 1
 R013: R{0,13} <= 1
 R014: R{0,14} <= 1
 R015: R{0,15} <= 1
 R016: R{0,16} <= 1
 R017: R{0,17} <= 1
 R018: R{0,18} <= 1
 R019: R{0,19} <= 1
 R020: R{0,20} <= 1
 R021: R{0,21} <= 1
 R022: R{1,0} <= 1
 R023: R{1,1} <= 1
 R024: R{1,2} <= 1
 R025: R{1,3} <= 1
 R026: R{1,4} <= 1
 R027: R{1,5} <= 1
 R028: R{1,6} <= 1
 R029: R{1,7} <= 1
 R030: R{1,8} <= 1
 R031: R{1,9} <= 1
 R032: R{1,10} <= 1
 R033: R{1,11} <= 1
 R034: R{1,12} <= 1
 R035: R{1,13} <= 1
 R036: R{1,14} <= 1
 R037: R{1,15} <= 1
 R038: R{1,16} <= 1
 R039: R{1,17} <= 1
 R040: R{1,18} <= 1
 R041: R{1,19} <= 1
 R042: R{1,20} <= 1
 R043: R{1,21} <= 1
 R044: R{1,22} <= 1
 R045: R{1,23} <= 1
 R046: R{2,0} <= 1
 R047: R{2,1} <= 1
 R048: R{2,2} <= 1
 R049: R{2,3} <= 1
 R050: R{2,4} <= 1
 R051: R{2,5} <= 1
 R052: R{2,6} <= 1
 R053: R{2,7} <= 1
 R054: R{2,8} <= 1
 R055: R{2,9} <= 1
 R056: R{2,10} <= 1
 R057: R{2,11} <= 1
 R058: R{2,12} <= 1
 R059: R{2,13} <= 1
 R060: R{2,14} <= 1
 R061: R{2,15} <= 1
 R062: R{2,16} <= 1
 R063: R{2,17} <= 1
 R064: R{2,18} <= 1
 R065: R{2,19} <= 1
 R066: R{2,20} <= 1
 R067: R{2,21} <= 1
 R068: R{2,22} <= 1
 R069: R{2,23} <= 1
 R070: R{2,24} <= 1
 R071: R{3,0} <= 1
 R072: R{3,1} <= 1
 R073: R{3,2} <= 1
 R074: R{3,3} <= 1
 R075: R{3,4} <= 1
 R076: R{3,5} <= 1
 R077: R{3,6} <= 1
 R078: R{3,7} <= 1
 R079: R{3,8} <= 1
 R080: R{3,9} <= 1
 R081: R{3,10} <= 1
 R082: R{3,11} <= 1
 R083: R{3,12} <= 1
 R084: R{3,13} <= 1
 R085: R{3,14} <= 1
 R086: R{3,15} <= 1
 R087: R{3,16} <= 1
 R088: R{3,17} <= 1
 R089: R{3,18} <= 1
 R090: R{3,19} <= 1
 R091: R{3,20} <= 1
 R092: R{3,21} <= 1
 R093: R{3,22} <= 1
 R094: R{3,23} <= 1
 R095: R{3,24} <= 1
 R096: R{3,25} <= 1
 R097: R{3,26} <= 1
 R098: R{4,0} <= 1
 R099: R{4,1} <= 1
 R0100: R{4,2} <= 1
 R0101: R{4,3} <= 1
 R0102: R{4,4} <= 1
 R0103: R{4,5} <= 1
 R0104: R{4,6} <= 1
 R0105: R{4,7} <= 1
 R0106: R{4,8} <= 1
 R0107: R{4,9} <= 1
 R0108: R{4,10} <= 1
 R0109: R{4,11} <= 1
 R0110: R{4,12} <= 1
 R0111: R{4,13} <= 1
 R0112: R{4,14} <= 1
 R0113: R{4,15} <= 1
 R0114: R{4,16} <= 1
 R0115: R{4,17} <= 1
 R0116: R{4,18} <= 1
 R0117: R{4,19} <= 1
 R0118: R{4,20} <= 1
 R0119: R{4,21} <= 1
 R0120: R{4,22} <= 1
 R0121: R{4,23} <= 1
 R0122: R{4,24} <= 1
 R0123: R{4,25} <= 1
 R0124: R{4,26} <= 1
 R0125: R{4,27} <= 1
 R0126: R{4,28} <= 1
 R0127: R{4,29} <= 1
 R0128: R{5,0} <= 1
 R0129: R{5,1} <= 1
 R0130: R{5,2} <= 1
 R0131: R{5,3} <= 1
 R0132: R{5,4} <= 1
 R0133: R{5,5} <= 1
 R0134: R{5,6} <= 1
 R0135: R{5,7} <= 1
 R0136: R{5,8} <= 1
 R0137: R{5,9} <= 1
 R0138: R{5,10} <= 1
 R0139: R{5,11} <= 1
 R0140: R{5,12} <= 1
 R0141: R{5,13} <= 1
 R0142: R{5,14} <= 1
 R0143: R{5,15} <= 1
 R0144: R{5,16} <= 1
 R0145: R{5,17} <= 1
 R0146: R{5,18} <= 1
 R0147: R{5,19} <= 1
 R0148: R{5,20} <= 1
 R0149: R{5,21} <= 1
 R0150: R{5,22} <= 1
 R0151: R{5,23} <= 1
 R0152: R{5,24} <= 1
 R0153: R{6,0} <= 1
 R0154: R{6,1} <= 1
 R0155: R{6,2} <= 1
 R0156: R{6,3} <= 1
 R0157: R{6,4} <= 1
 R0158: R{6,5} <= 1
 R0159: R{6,6} <= 1
 R0160: R{6,7} <= 1
 R0161: R{6,8} <= 1
 R0162: R{6,9} <= 1
 R0163: R{6,10} <= 1
 R0164: R{6,11} <= 1
 R0165: R{6,12} <= 1
 R0166: R{6,13} <= 1
 R0167: R{6,14} <= 1
 R0168: R{6,15} <= 1
 R0169: R{6,16} <= 1
 R0170: R{6,17} <= 1
 R0171: R{6,18} <= 1
 R0172: R{6,19} <= 1
 R0173: R{6,20} <= 1
 R0174: R{6,21} <= 1
 R0175: R{6,22} <= 1
 R0176: R{6,23} <= 1
 R0177: R{6,24} <= 1
 R0178: R{6,25} <= 1
 R0179: R{6,26} <= 1
 R0180: R{6,27} <= 1
 R0181: R{6,28} <= 1
 R0182: R{6,29} <= 1
 R0183: R{6,30} <= 1
 R0184: R{6,31} <= 1
 R0185: R{6,32} <= 1
 R0186: R{6,33} <= 1
 R0187: R{6,34} <= 1
 R0188: R{6,35} <= 1
 R1_0: R{0,0} + R{0,1} + R{0,2} + R{0,3} + R{0,4} + R{0,5} + R{0,6}
   + R{0,7} + R{0,8} + R{0,9} + R{0,10} + R{0,11} + R{0,12} + R{0,13}
   + R{0,14} + R{0,15} + R{0,16} + R{0,17} + R{0,18} + R{0,19} + R{0,20}
   + R{0,21} <= 1
 R1_1: R{1,0} + R{1,1} + R{1,2} + R{1,3} + R{1,4} + R{1,5} + R{1,6}
   + R{1,7} + R{1,8} + R{1,9} + R{1,10} + R{1,11} + R{1,12} + R{1,13}
   + R{1,14} + R{1,15} + R{1,16} + R{1,17} + R{1,18} + R{1,19} + R{1,20}
   + R{1,21} + R{1,22} + R{1,23} <= 1
 R1_2: R{2,0} + R{2,1} + R{2,2} + R{2,3} + R{2,4} + R{2,5} + R{2,6}
   + R{2,7} + R{2,8} + R{2,9} + R{2,10} + R{2,11} + R{2,12} + R{2,13}
   + R{2,14} + R{2,15} + R{2,16} + R{2,17} + R{2,18} + R{2,19} + R{2,20}
   + R{2,21} + R{2,22} + R{2,23} + R{2,24} <= 1
 R1_3: R{3,0} + R{3,1} + R{3,2} + R{3,3} + R{3,4} + R{3,5} + R{3,6}
   + R{3,7} + R{3,8} + R{3,9} + R{3,10} + R{3,11} + R{3,12} + R{3,13}
   + R{3,14} + R{3,15} + R{3,16} + R{3,17} + R{3,18} + R{3,19} + R{3,20}
   + R{3,21} + R{3,22} + R{3,23} + R{3,24} + R{3,25} + R{3,26} <= 1
 R1_4: R{4,0} + R{4,1} + R{4,2} + R{4,3} + R{4,4} + R{4,5} + R{4,6}
   + R{4,7} + R{4,8} + R{4,9} + R{4,10} + R{4,11} + R{4,12} + R{4,13}
   + R{4,14} + R{4,15} + R{4,16} + R{4,17} + R{4,18} + R{4,19} + R{4,20}
   + R{4,21} + R{4,22} + R{4,23} + R{4,24} + R{4,25} + R{4,26} + R{4,27}
   + R{4,28} + R{4,29} <= 1
 R1_5: R{5,0} + R{5,1} + R{5,2} + R{5,3} + R{5,4} + R{5,5} + R{5,6}
   + R{5,7} + R{5,8} + R{5,9} + R{5,10} + R{5,11} + R{5,12} + R{5,13}
   + R{5,14} + R{5,15} + R{5,16} + R{5,17} + R{5,18} + R{5,19} + R{5,20}
   + R{5,21} + R{5,22} + R{5,23} + R{5,24} <= 1
 R1_6: R{6,0} + R{6,1} + R{6,2} + R{6,3} + R{6,4} + R{6,5} + R{6,6}
   + R{6,7} + R{6,8} + R{6,9} + R{6,10} + R{6,11} + R{6,12} + R{6,13}
   + R{6,14} + R{6,15} + R{6,16} + R{6,17} + R{6,18} + R{6,19} + R{6,20}
   + R{6,21} + R{6,22} + R{6,23} + R{6,24} + R{6,25} + R{6,26} + R{6,27}
   + R{6,28} + R{6,29} + R{6,30} + R{6,31} + R{6,32} + R{6,33} + R{6,34}
   + R{6,35} <= 1
 R2_0: 7 R{0,8} + 7 R{0,18} + 7 R{0,19} + 7 R{0,20} + 7 R{6,25} <= 7
 R2_1: 10 R{0,9} + 10 R{0,13} + 10 R{2,3} + 10 R{2,4} + 10 R{2,5}
   + 10 R{2,6} + 10 R{2,7} + 10 R{2,8} + 10 R{2,13} + 10 R{2,17}
   + 10 R{2,19} + 10 R{2,21} + 10 R{2,23} + 10 R{2,24} + 10 R{3,6}
   + 10 R{3,10} + 10 R{3,11} + 10 R{3,15} + 10 R{3,23} + 10 R{3,24}
   + 10 R{3,26} + 10 R{5,5} + 10 R{5,6} + 10 R{5,8} + 10 R{5,9}
   + 10 R{5,13} + 10 R{5,14} + 10 R{5,23} + 10 R{6,9} + 10 R{6,17} <= 10
 R2_2: <= 0
 R2_3: 4 R{1,5} + 4 R{1,9} + 4 R{1,12} + 4 R{1,20} + 4 R{1,22} + 4 R{2,3}
   + 4 R{2,4} + 4 R{2,5} + 4 R{2,6} + 4 R{2,7} + 4 R{2,12} + 4 R{2,13}
   + 4 R{2,15} + 4 R{2,17} + 4 R{2,24} <= 4
 R2_4: <= 0
 R2_5: 5 R{0,4} + 5 R{0,5} <= 5
 R2_6: 10 R{1,1} + 10 R{1,4} + 10 R{1,5} + 10 R{1,9} + 10 R{1,10}
   + 10 R{1,11} + 10 R{1,12} + 10 R{1,14} + 10 R{1,15} + 10 R{1,16}
   + 10 R{1,20} + 10 R{1,21} + 10 R{1,22} + 10 R{2,19} + 10 R{5,5}
   + 10 R{5,6} + 10 R{5,14} + 10 R{5,17} + 10 R{5,18} + 10 R{5,19}
   + 10 R{6,9} + 10 R{6,15} <= 10
 R2_7: 6 R{1,1} + 6 R{1,2} + 6 R{1,3} + 6 R{1,4} + 6 R{1,5} + 6 R{1,7}
   + 6 R{1,9} + 6 R{1,10} + 6 R{1,11} + 6 R{1,14} + 6 R{1,17} + 6 R{1,19}
   + 6 R{1,20} + 6 R{1,21} + 6 R{1,22} <= 6
 R2_8: <= 0
 R2_9: 12 R{0,19} + 12 R{0,20} + 12 R{2,14} + 12 R{4,1} + 12 R{4,2}
   + 12 R{4,3} + 12 R{4,4} + 12 R{4,6} + 12 R{4,8} + 12 R{4,9} + 12 R{4,10}
   + 12 R{4,11} + 12 R{4,13} + 12 R{4,14} + 12 R{4,15} + 12 R{4,17}
   + 12 R{4,18} + 12 R{4,19} + 12 R{4,20} + 12 R{4,23} + 12 R{4,26}
   + 12 R{4,27} + 12 R{4,29} <= 12
 R2_10: <= 8
 R2_11: 15 R{0,11} + 15 R{0,14} + 15 R{0,19} + 15 R{0,20} + 15 R{6,16}
   + 15 R{6,26} <= 15
 R2_12: <= 0
 R2_13: 8 R{1,9} + 8 R{1,14} + 8 R{1,20} + 8 R{1,21} + 8 R{1,22} <= 8
 R2_14: <= 0
 R2_15: 11 R{0,0} + 11 R{0,1} + 11 R{0,2} + 11 R{0,8} + 11 R{4,1}
   + 11 R{4,2} + 11 R{4,3} + 11 R{4,11} + 11 R{4,14} + 11 R{4,27} <= 11
 R2_16: 5 R{0,11} + 5 R{0,14} + 5 R{1,16} + 5 R{2,10} + 5 R{2,20} <= 5
 R2_17: 11 R{1,11} + 11 R{1,13} + 11 R{1,15} + 11 R{1,17} + 11 R{1,18}
   + 11 R{1,19} + 11 R{1,23} + 11 R{5,15} <= 11
 R2_18: 5 R{1,18} + 5 R{1,19} + 5 R{2,23} + 5 R{2,24} + 5 R{4,11}
   + 5 R{4,14} + 5 R{4,27} <= 5
 R2_19: 11 R{1,7} + 11 R{2,6} + 11 R{2,7} + 11 R{2,11} + 11 R{2,17}
   + 11 R{2,18} + 11 R{2,21} + 11 R{2,24} + 11 R{3,7} + 11 R{3,14}
   + 11 R{4,1} + 11 R{4,2} + 11 R{4,13} + 11 R{4,14} + 11 R{4,19}
   + 11 R{4,27} + 11 R{5,7} + 11 R{5,9} + 11 R{5,11} + 11 R{5,13}
   + 11 R{5,20} + 11 R{5,22} + 11 R{6,11} <= 11
 R2_20: 13 R{0,10} + 13 R{0,16} + 13 R{0,19} + 13 R{0,20} + 13 R{1,3}
   + 13 R{2,8} + 13 R{5,15} + 13 R{5,16} + 13 R{5,24} + 13 R{6,1}
   + 13 R{6,2} + 13 R{6,3} + 13 R{6,4} + 13 R{6,6} + 13 R{6,8} + 13 R{6,12}
   + 13 R{6,14} + 13 R{6,18} + 13 R{6,22} <= 13
 R2_21: <= 0
 R2_22: 10 R{1,16} + 10 R{1,22} + 10 R{2,20} + 10 R{4,18} + 10 R{5,21}
   + 10 R{6,16} <= 10
 R2_23: 14 R{0,1} + 14 R{0,2} + 14 R{2,0} + 14 R{2,1} + 14 R{2,16}
   + 14 R{2,20} + 14 R{3,12} + 14 R{3,20} + 14 R{4,13} + 14 R{6,3}
   + 14 R{6,8} + 14 R{6,12} + 14 R{6,14} + 14 R{6,20} + 14 R{6,23}
   + 14 R{6,24} + 14 R{6,25} + 14 R{6,29} <= 14
 R2_24: 10 R{1,23} + 10 R{2,23} + 10 R{2,24} + 10 R{3,1} + 10 R{3,2}
   + 10 R{3,3} + 10 R{3,4} + 10 R{3,5} + 10 R{3,6} + 10 R{3,7} + 10 R{3,9}
   + 10 R{3,10} + 10 R{3,11} + 10 R{3,13} + 10 R{3,15} + 10 R{3,17}
   + 10 R{3,20} + 10 R{3,22} + 10 R{4,11} + 10 R{4,26} + 10 R{5,15}
   + 10 R{5,19} + 10 R{6,16} + 10 R{6,33} <= 10
 R2_25: 13 R{0,20} + 13 R{3,12} + 13 R{3,20} + 13 R{4,1} + 13 R{4,2}
   + 13 R{4,3} + 13 R{4,4} + 13 R{4,6} + 13 R{4,7} + 13 R{4,8} + 13 R{4,9}
   + 13 R{4,10} + 13 R{4,11} + 13 R{4,12} + 13 R{4,13} + 13 R{4,14}
   + 13 R{4,15} + 13 R{4,16} + 13 R{4,19} + 13 R{4,20} + 13 R{4,22}
   + 13 R{4,23} + 13 R{4,24} + 13 R{4,26} + 13 R{4,27} + 13 R{5,21}
   + 13 R{6,28} <= 13
 R2_26: <= 6
 R2_27: 5 R{0,15} + 5 R{0,19} + 5 R{0,20} + 5 R{1,6} + 5 R{1,11}
   + 5 R{1,12} + 5 R{1,15} + 5 R{1,18} + 5 R{1,20} + 5 R{1,21} + 5 R{1,22}
   + 5 R{1,23} + 5 R{2,4} + 5 R{2,5} + 5 R{2,6} + 5 R{2,7} + 5 R{2,11}
   + 5 R{2,12} + 5 R{2,18} + 5 R{3,10} + 5 R{3,11} + 5 R{3,18} + 5 R{3,19}
   + 5 R{3,21} + 5 R{3,24} + 5 R{3,25} + 5 R{3,26} + 5 R{4,13} + 5 R{4,15}
   + 5 R{4,17} + 5 R{4,20} + 5 R{4,25} + 5 R{4,28} + 5 R{4,29} + 5 R{5,8}
   + 5 R{5,10} + 5 R{5,15} + 5 R{5,21} + 5 R{6,1} + 5 R{6,2} + 5 R{6,3}
   + 5 R{6,4} + 5 R{6,5} + 5 R{6,6} + 5 R{6,7} + 5 R{6,8} + 5 R{6,10}
   + 5 R{6,12} + 5 R{6,13} + 5 R{6,14} + 5 R{6,18} + 5 R{6,19} + 5 R{6,20}
   + 5 R{6,21} + 5 R{6,22} + 5 R{6,23} + 5 R{6,24} + 5 R{6,25} + 5 R{6,26}
   + 5 R{6,29} + 5 R{6,31} + 5 R{6,32} + 5 R{6,33} + 5 R{6,34} + 5 R{6,35}
   <= 5
 R2_28: <= 0
 R2_29: <= 0
 R2_30: <= 0
 R2_31: 6 R{1,11} + 6 R{1,17} + 6 R{1,18} + 6 R{1,19} + 6 R{1,20}
   + 6 R{1,22} + 6 R{2,17} + 6 R{2,19} <= 6
 R2_32: 7 R{0,19} + 7 R{0,20} + 7 R{4,27} + 7 R{5,1} + 7 R{5,2} + 7 R{5,3}
   + 7 R{5,4} + 7 R{5,7} + 7 R{5,11} + 7 R{5,12} + 7 R{5,15} + 7 R{5,16}
   + 7 R{5,17} + 7 R{5,18} + 7 R{5,19} + 7 R{5,21} + 7 R{5,22} + 7 R{5,23}
   + 7 R{5,24} + 7 R{6,15} <= 7
 R2_33: 12 R{0,19} + 12 R{2,21} + 12 R{3,4} + 12 R{3,6} + 12 R{3,8}
   + 12 R{3,9} + 12 R{3,10} + 12 R{3,11} + 12 R{3,12} + 12 R{3,15}
   + 12 R{3,16} + 12 R{3,17} + 12 R{3,22} + 12 R{3,23} + 12 R{3,24}
   + 12 R{3,26} + 12 R{4,17} + 12 R{4,25} + 12 R{4,29} + 12 R{5,10}
   + 12 R{5,13} + 12 R{5,19} <= 12
 R2_34: 5 R{1,9} + 5 R{1,12} + 5 R{1,14} + 5 R{1,18} + 5 R{1,20}
   + 5 R{1,21} + 5 R{2,21} + 5 R{4,11} + 5 R{4,14} + 5 R{4,21} + 5 R{4,27}
   + 5 R{5,21} <= 5
 R2_35: 13 R{3,20} + 13 R{5,10} + 13 R{5,19} <= 13
 R2_36: <= 0
 R2_37: 5 R{1,13} + 5 R{3,1} + 5 R{3,2} + 5 R{3,3} + 5 R{3,4} + 5 R{3,5}
   + 5 R{3,7} + 5 R{3,8} + 5 R{3,13} + 5 R{3,18} + 5 R{3,19} + 5 R{6,16}
   <= 5
 R2_38: <= 0
 R2_39: <= 0
 R2_40: 15 R{0,19} + 15 R{0,20} + 15 R{1,16} + 15 R{2,3} + 15 R{2,4}
   + 15 R{2,5} + 15 R{2,6} + 15 R{2,7} + 15 R{2,8} + 15 R{2,11}
   + 15 R{2,12} + 15 R{2,13} + 15 R{2,15} + 15 R{2,17} + 15 R{2,19}
   + 15 R{2,21} <= 15
 R2_41: 5 R{1,5} + 5 R{1,9} + 5 R{1,12} + 5 R{1,14} + 5 R{1,20} + 5 R{1,21}
   + 5 R{1,22} + 5 R{2,11} + 5 R{2,18} + 5 R{3,3} + 5 R{3,7} + 5 R{3,13}
   + 5 R{3,14} + 5 R{3,18} + 5 R{3,21} + 5 R{5,8} + 5 R{6,14} + 5 R{6,20}
   + 5 R{6,23} + 5 R{6,25} + 5 R{6,26} <= 5
 R2_42: 4 R{2,3} + 4 R{2,4} + 4 R{2,5} + 4 R{2,6} + 4 R{2,8} + 4 R{2,13}
   + 4 R{2,21} <= 4
 R2_43: <= 0
 R2_44: <= 0
 R2_45: <= 0
 R2_46: 9 R{0,8} + 9 R{0,18} + 9 R{1,16} + 9 R{2,10} + 9 R{2,14}
   + 9 R{2,18} + 9 R{2,20} + 9 R{4,5} + 9 R{4,6} + 9 R{4,7} + 9 R{4,12}
   + 9 R{4,15} + 9 R{4,16} + 9 R{4,19} + 9 R{4,20} + 9 R{4,21} + 9 R{4,22}
   <= 9
 R2_47: 7 R{5,1} + 7 R{5,2} + 7 R{5,21} <= 7
 R2_48: 4 R{0,18} + 4 R{4,1} + 4 R{4,2} + 4 R{4,3} + 4 R{4,4} + 4 R{4,6}
   + 4 R{4,7} + 4 R{4,8} + 4 R{4,10} + 4 R{4,11} + 4 R{4,12} + 4 R{4,13}
   + 4 R{4,14} + 4 R{4,17} + 4 R{4,19} + 4 R{4,21} + 4 R{4,23} + 4 R{4,24}
   + 4 R{4,25} + 4 R{4,27} + 4 R{4,28} + 4 R{4,29} <= 4
 R2_49: <= 0
 R2_50: <= 0
 R2_51: 11 R{1,13} + 11 R{5,14} + 11 R{5,19} <= 11
 R2_52: 10 R{4,5} + 10 R{4,9} + 10 R{4,18} + 10 R{4,25} + 10 R{4,28}
   + 10 R{4,29} <= 10
 R2_53: 13 R{4,1} + 13 R{4,2} + 13 R{4,3} + 13 R{4,4} + 13 R{4,13}
   + 13 R{4,19} + 13 R{4,20} <= 13
 R2_54: 9 R{2,24} + 9 R{3,1} + 9 R{3,2} + 9 R{3,3} + 9 R{3,5} + 9 R{3,7}
   + 9 R{3,8} + 9 R{3,9} + 9 R{3,10} + 9 R{3,11} + 9 R{3,13} + 9 R{3,14}
   + 9 R{3,17} + 9 R{3,18} + 9 R{3,19} + 9 R{3,23} + 9 R{3,25} <= 9
 R2_55: 8 R{3,25} + 8 R{4,28} + 8 R{6,1} + 8 R{6,2} + 8 R{6,3} + 8 R{6,4}
   + 8 R{6,5} + 8 R{6,6} + 8 R{6,7} + 8 R{6,8} + 8 R{6,10} + 8 R{6,12}
   + 8 R{6,13} + 8 R{6,14} + 8 R{6,18} + 8 R{6,19} + 8 R{6,21} + 8 R{6,22}
   + 8 R{6,23} + 8 R{6,24} + 8 R{6,25} + 8 R{6,27} + 8 R{6,29} + 8 R{6,30}
   + 8 R{6,31} + 8 R{6,32} + 8 R{6,33} + 8 R{6,34} + 8 R{6,35} <= 8
 R2_56: 6 R{0,19} + 6 R{0,20} + 6 R{1,14} + 6 R{1,20} + 6 R{1,21}
   + 6 R{1,22} + 6 R{2,0} + 6 R{2,1} + 6 R{2,9} + 6 R{2,18} + 6 R{2,22}
   + 6 R{3,4} + 6 R{3,6} + 6 R{3,10} + 6 R{3,12} + 6 R{3,19} + 6 R{3,24}
   + 6 R{3,25} + 6 R{3,26} + 6 R{4,6} + 6 R{4,7} + 6 R{4,10} + 6 R{4,11}
   + 6 R{4,12} + 6 R{4,14} + 6 R{4,17} + 6 R{4,25} + 6 R{4,28} + 6 R{4,29}
   + 6 R{5,10} + 6 R{5,13} + 6 R{5,21} + 6 R{6,8} + 6 R{6,16} + 6 R{6,23}
   + 6 R{6,29} + 6 R{6,31} + 6 R{6,32} + 6 R{6,34} + 6 R{6,35} <= 6
 R2_57: <= 0
 R2_58: <= 0
 R2_59: 10 R{1,12} + 10 R{1,13} + 10 R{1,16} + 10 R{2,10} + 10 R{2,14}
   + 10 R{2,20} + 10 R{3,17} + 10 R{3,20} + 10 R{3,22} + 10 R{4,8}
   + 10 R{4,9} + 10 R{4,10} + 10 R{4,15} + 10 R{4,16} + 10 R{4,18}
   + 10 R{4,21} + 10 R{4,22} + 10 R{4,23} + 10 R{4,24} + 10 R{4,26}
   + 10 R{5,13} + 10 R{6,10} + 10 R{6,27} + 10 R{6,28} + 10 R{6,30} <= 10
 R2_60: <= 0
 R2_61: <= 9
 R2_62: <= 0
 R2_63: <= 0
 R2_64: <= 0
 R2_65: 5 R{2,0} + 5 R{2,1} + 5 R{2,9} + 5 R{2,16} + 5 R{2,22} + 5 R{3,11}
   + 5 R{3,12} + 5 R{3,20} + 5 R{4,21} + 5 R{5,21} + 5 R{6,1} + 5 R{6,2}
   + 5 R{6,3} + 5 R{6,4} + 5 R{6,5} + 5 R{6,6} + 5 R{6,7} + 5 R{6,12}
   + 5 R{6,13} + 5 R{6,14} + 5 R{6,16} + 5 R{6,18} + 5 R{6,19} + 5 R{6,20}
   + 5 R{6,21} + 5 R{6,22} + 5 R{6,24} + 5 R{6,27} + 5 R{6,29} + 5 R{6,33}
   <= 5
 R2_66: 7 R{0,12} + 7 R{0,19} + 7 R{0,20} + 7 R{5,13} + 7 R{6,1} + 7 R{6,2}
   + 7 R{6,3} + 7 R{6,4} + 7 R{6,6} + 7 R{6,7} + 7 R{6,8} + 7 R{6,10}
   + 7 R{6,12} + 7 R{6,14} + 7 R{6,15} + 7 R{6,18} + 7 R{6,20} + 7 R{6,22}
   + 7 R{6,24} + 7 R{6,26} + 7 R{6,29} + 7 R{6,32} <= 7
 R2_67: 3 R{0,1} + 3 R{0,2} + 3 R{0,8} + 3 R{0,11} + 3 R{0,18} + 3 R{1,14}
   + 3 R{2,0} + 3 R{2,1} + 3 R{2,9} + 3 R{2,16} + 3 R{2,18} + 3 R{4,5}
   + 3 R{4,7} + 3 R{4,12} + 3 R{4,17} + 3 R{4,25} + 3 R{4,28} + 3 R{5,8}
   + 3 R{6,12} + 3 R{6,14} + 3 R{6,16} + 3 R{6,18} + 3 R{6,23} + 3 R{6,25}
   + 3 R{6,29} + 3 R{6,34} <= 3
 R2_68: 6 R{0,15} + 6 R{0,16} + 6 R{0,19} + 6 R{1,13} + 6 R{4,1}
   + 6 R{4,11} + 6 R{5,13} <= 6
 R2_69: 7 R{1,9} + 7 R{1,14} + 7 R{1,16} + 7 R{1,17} + 7 R{4,1} + 7 R{4,2}
   + 7 R{4,3} + 7 R{4,4} + 7 R{4,6} + 7 R{4,7} + 7 R{4,8} + 7 R{4,9}
   + 7 R{4,10} + 7 R{4,11} + 7 R{4,13} + 7 R{4,19} + 7 R{4,23} + 7 R{6,16}
   + 7 R{6,34} <= 7
 R2_70: 11 R{1,1} + 11 R{1,2} + 11 R{1,4} + 11 R{1,5} + 11 R{1,10}
   + 11 R{1,13} <= 11
 R2_71: 7 R{1,12} + 7 R{1,13} + 7 R{3,1} + 7 R{3,7} + 7 R{3,11} + 7 R{3,13}
   + 7 R{3,14} + 7 R{3,17} <= 7
 R2_72: <= 0
 R2_73: <= 0
 R2_74: 5 R{2,23} + 5 R{5,1} <= 5
 R2_75: 8 R{6,1} + 8 R{6,2} + 8 R{6,3} + 8 R{6,4} + 8 R{6,5} + 8 R{6,6}
   + 8 R{6,7} + 8 R{6,8} + 8 R{6,12} + 8 R{6,13} + 8 R{6,18} + 8 R{6,19}
   + 8 R{6,21} + 8 R{6,22} + 8 R{6,24} + 8 R{6,30} + 8 R{6,31} + 8 R{6,32}
   + 8 R{6,33} + 8 R{6,35} <= 8
 R2_76: 12 R{0,4} + 12 R{0,5} + 12 R{0,7} + 12 R{0,16} + 12 R{1,13}
   + 12 R{2,11} + 12 R{2,12} + 12 R{2,15} + 12 R{3,8} + 12 R{3,19}
   + 12 R{3,23} + 12 R{5,4} + 12 R{5,5} + 12 R{5,6} + 12 R{5,8}
   + 12 R{5,15} + 12 R{5,19} + 12 R{5,22} + 12 R{6,15} + 12 R{6,22} <= 12
 R2_77: 7 R{0,5} + 7 R{0,6} + 7 R{0,9} + 7 R{0,10} + 7 R{0,12} + 7 R{0,13}
   + 7 R{0,15} + 7 R{0,17} + 7 R{0,21} + 7 R{1,2} + 7 R{1,5} + 7 R{1,7}
   + 7 R{1,8} + 7 R{1,10} + 7 R{1,12} + 7 R{1,15} + 7 R{2,4} + 7 R{2,5}
   + 7 R{2,12} + 7 R{2,13} + 7 R{2,15} + 7 R{2,18} + 7 R{2,21} + 7 R{3,2}
   + 7 R{3,3} + 7 R{3,4} + 7 R{3,5} + 7 R{3,6} + 7 R{3,8} + 7 R{3,14}
   + 7 R{3,16} + 7 R{3,22} + 7 R{3,23} + 7 R{4,2} + 7 R{4,3} + 7 R{4,6}
   + 7 R{4,8} + 7 R{4,9} + 7 R{4,10} + 7 R{4,15} + 7 R{4,17} + 7 R{4,26}
   + 7 R{5,2} + 7 R{5,3} + 7 R{5,4} + 7 R{5,5} + 7 R{5,7} + 7 R{5,9}
   + 7 R{5,10} + 7 R{5,11} + 7 R{5,13} + 7 R{5,15} + 7 R{5,17} + 7 R{5,18}
   + 7 R{5,21} + 7 R{5,23} + 7 R{6,2} + 7 R{6,3} + 7 R{6,5} + 7 R{6,9}
   + 7 R{6,11} + 7 R{6,13} + 7 R{6,15} + 7 R{6,17} + 7 R{6,21} + 7 R{6,23}
   + 7 R{6,25} + 7 R{6,35} <= 7
Bounds
End
